10 4
MSNVLT01
Nguyen Van An
25
0901234561
annv@hoancau.com
14000000
10
MSNVLT02
Tran Thi Binh
28
0901234562
binhtt@hoancau.com
16000000
0
MSNVLT03
Le Van Cuong
32
0901234563
cuonglv@hoancau.com
22000000
15
MSNVLT04
Pham Minh Danh
30
0901234564
danhpm@hoancau.com
18000000
5
MSNVLT05
Hoang Ngoan Em
24
0901234565
emhn@hoancau.com
11000000
30
MSNVLT06
Vu Hoang Tuan
35
0901234566
tuanvh@hoancau.com
26000000
12
MSNVLT07
Doan Van Giang
27
0901234567
giangdv@hoancau.com
13500000
20
MSNVLT08
Tang Thanh Ha
29
0901234568
hatt@hoancau.com
15500000
8
MSNVLT09
Quach Gia Phuc
31
0901234569
phucqg@hoancau.com
21000000
0
MSNVLT10
Bui Minh Quan
26
0901234570
quanbm@hoancau.com
12500000
25
MSNVKC01
Dinh Lan Khue
33
0901234571
khuedl@hoancau.com
10000000
40
MSNVKC02
Lam Thanh Loc
26
0901234572
loclt@hoancau.com
9500000
15
MSNVKC03
Ngo Quang Minh
29
0901234573
minhnq@hoancau.com
12000000
60
MSNVKC04
Ly Nhut Nam
24
0901234574
namln@hoancau.com
8500000
0
