3 11
MSNVLT01
Phan Huynh Phuc
29
0902111222
phuclh@hoancau.com
15000000
20
MSNVLT02
Duong Tri Phat
31
0902111333
phatdt@hoancau.com
20000000
10
MSNVLT03
Trinh My Quyen
26
0902111444
quyentm@hoancau.com
13000000
0
MSNVKC01
Mai Thao Vy
24
0902111555
vymt@hoancau.com
9000000
30
MSNVKC02
Cao Xuan Son
33
0902111666
soncx@hoancau.com
11500000
12
MSNVKC03
Tieu Chien Thang
28
0902111777
thangtc@hoancau.com
10000000
45
MSNVKC04
Hua Ngoc Uyen
25
0902111888
uyenhn@hoancau.com
8800000
20
MSNVKC05
Diep Dai Vinh
30
0902111999
vinhdd@hoancau.com
12000000
5
MSNVKC06
Kieu Minh Vu
32
0902111001
vukm@hoancau.com
13000000
50
MSNVKC07
Ta Quang Xuan
27
0902111002
xuantq@hoancau.com
9500000
18
MSNVKC08
Nghiem Ba Yen
29
0902111003
yennb@hoancau.com
11000000
25
MSNVKC09
Le Hoang An
34
0902111004
anlh@hoancau.com
14000000
0
MSNVKC10
Pham Thanh Binh
26
0902111005
binhpt@hoancau.com
9000000
60
MSNVKC11
Nguyen Duc Cuong
31
0902111006
cuongnd@hoancau.com
12500000
35
