6 4
MSNVLT01
Do Minh Dat
27
0903999111
datdm@hoancau.com
14000000
10
MSNVLT02
Vu Ngoc Giang
30
0903999222
giangvn@hoancau.com
16500000
15
MSNVLT03
Hoang Thuy Ha
25
0903999333
haht@hoancau.com
12000000
5
MSNVLT04
Bui Quang Hieu
33
0903999444
hieubq@hoancau.com
20000000
0
MSNVLT05
Trinh Cong Hoan
29
0903999555
hoantc@hoancau.com
15000000
20
MSNVLT06
Luong Gia Huy
26
0903999666
huylg@hoancau.com
13000000
8
MSNVKC01
Phan Minh Khanh
35
0903999777
khanhpm@hoancau.com
23000000
80
MSNVKC02
Ngo Hoang Long
28
0903999888
longnh@hoancau.com
11000000
30
MSNVKC03
Vo Thi My
24
0903999999
myvt@hoancau.com
9500000
10
MSNVKC04
Dang Hoang Nam
31
0903999000
namdh@hoancau.com
12500000
40
