25 25
Nguyen Van An
21 5 2004
4500000
120
Tran Binh Minh
10 12 2003
5000000
80
Le Quoc Huy
19 3 1999
6000000
150
Pham Duc Thang
7 7 2001
4700000
95
Hoang Minh Quan
12 11 2000
5200000
110
Do Thanh Dat
3 4 1998
6500000
200
Bui Quang Huy
25 9 2002
4800000
76
Vo Hoang Nam
14 2 2004
4300000
132
Dang Gia Bao
30 6 2003
5100000
89
Mai Tuan Kiet
1 1 1997
7000000
250
Cao Minh Tri
17 8 2001
5600000
143
Phan Quoc Viet
9 10 2002
4900000
101
Ly Thanh Phong
22 12 1999
6200000
180
Truong Van Khoa
5 5 2000
5500000
115
Lam Duc Anh
18 6 2004
4400000
67
Huynh Nhat Minh
29 3 2001
5800000
154
Ngo Bao Long
11 7 2003
4600000
92
Dinh Tien Dat
4 9 2002
5300000
125
To Minh Duc
16 1 1998
6600000
210
Khuong Anh Tuan
20 4 1999
6100000
175
Luong Hai Dang
8 8 2000
5700000
138
Vu Trong Nghia
27 2 2001
5400000
119
Chau Quang Vinh
13 10 2003
5000000
106
Ta Hoang Phuc
24 11 2004
4500000
73
Ha Gia Khanh
6 12 1997
7200000
260
Pham Ngoc Lan
2 8 2002
26
Hoang Anh Khoa
30 1 2001
22
Nguyen Thi Mai
15 3 2000
24
Tran Thu Ha
6 6 2003
20
Le Minh Chau
19 9 2002
25
Do Quynh Anh
28 12 2001
21
Bui Khanh Linh
7 4 1999
23
Vo Bao Ngoc
12 5 2004
19
Dang Hoai Nam
26 7 2000
27
Mai Thanh Lam
1 10 2003
18
Cao Thuy Duong
9 2 2001
26
Phan Nhu Y
17 11 2002
22
Ly Thanh Tam
23 3 1998
24
Truong My Hanh
4 4 2000
20
Lam Gia Han
13 6 2004
25
Huynh Kim Chi
29 8 2001
21
Ngo Thu Trang
11 1 2003
23
Dinh Minh Thu
16 5 2002
19
To Hoang Yen
22 9 1999
27
Khuong Anh Thu
5 12 2000
18
Luong Bao Tran
8 7 2001
26
Vu Nhat Vy
20 10 2003
22
Chau Ngoc Diep
3 2 2004
24
Ta My Linh
25 11 2002
20
Ha Phuong Nhi
14 12 1997
28
