25 25 25
GDDAT01
15 5 2022
20000000
100
0
GDDAT02
12 12 2024
15000000
120
1
GDDAT03
22 3 2023
18000000
90
2
GDDAT04
05 08 2025
25000000
110
0
GDDAT05
30 01 2026
22000000
130
1
GDDAT06
14 07 2022
14000000
85
2
GDDAT07
19 12 2024
16000000
150
0
GDDAT08
11 11 2023
19000000
95
1
GDDAT09
02 04 2025
21000000
105
2
GDDAT10
25 09 2026
27000000
140
0
GDDAT11
08 02 2022
13000000
70
1
GDDAT12
17 12 2024
17500000
115
2
GDDAT13
29 06 2023
20500000
125
0
GDDAT14
12 10 2025
23000000
88
1
GDDAT15
21 05 2026
26000000
160
2
GDDAT16
03 03 2022
15500000
100
0
GDDAT17
28 12 2024
14500000
105
1
GDDAT18
10 01 2023
18500000
92
2
GDDAT19
16 07 2025
24000000
135
0
GDDAT20
07 11 2026
28000000
120
1
GDDAT21
24 04 2022
16500000
80
2
GDDAT22
31 12 2024
13500000
145
0
GDDAT23
13 08 2023
19500000
112
1
GDDAT24
09 02 2025
22500000
98
2
GDDAT25
18 06 2026
25500000
150
0
GDNP01
20 6 2022
50000000
80
123 Nguyen Du, Q1
0
GDNP02
25 12 2024
30000000
90
456 Le Loi, Q3
1
GDNP03
14 02 2023
45000000
75
789 Dien Bien Phu, Binh Thanh
0
GDNP04
09 07 2025
35000000
85
12 Ly Tu Trong, Q1
1
GDNP05
18 11 2026
60000000
100
55 Nguyen Hue, Q1
0
GDNP06
05 04 2022
28000000
65
234 CMT8, Q3
1
GDNP07
12 12 2024
55000000
95
88 Dong Khoi, Q1
0
GDNP08
21 08 2023
32000000
70
102 Tran Hung Dao, Q5
1
GDNP09
30 03 2025
48000000
110
17 Hoang Van Thu, Phu Nhuan
0
GDNP10
15 10 2026
38000000
88
64 Le Hong Phong, Q10
1
GDNP11
07 01 2022
52000000
105
91 Hai Ba Trung, Q3
0
GDNP12
02 12 2024
27000000
78
43 Nguyen Trai, Q5
1
GDNP13
19 05 2023
46000000
82
112 Vo Van Tan, Q3
0
GDNP14
26 02 2025
34000000
92
305 Nguyen Tri Phuong, Q10
1
GDNP15
11 09 2026
58000000
115
14 Thao Dien, Q2
0
GDNP16
23 11 2022
31000000
60
99 Cong Hoa, Tan Binh
1
GDNP17
20 12 2024
65000000
120
26 Le Duan, Q1
0
GDNP18
04 06 2023
33000000
84
71 Phan Dang Luu, Phu Nhuan
1
GDNP19
13 01 2025
49000000
98
8A Nguyen Binh Khiem, Q1
0
GDNP20
28 07 2026
36000000
76
152 Cao Thang, Q3
1
GDNP21
17 08 2022
51000000
90
40 Dinh Tien Hoang, Binh Thanh
0
GDNP22
15 12 2024
29000000
82
601 CMT8, Tan Binh
1
GDNP23
02 10 2023
47000000
102
33 Nam Ky Khoi Nghia, Q1
0
GDNP24
22 04 2025
31500000
87
194 Ba Thang Hai, Q10
1
GDNP25
09 03 2026
53000000
96
72 Le Thanh Ton, Q1
0
GDCH01
01 12 2024
40000000
60
1
CHA01
GDCH02
18 12 2024
35000000
75
16
CHB15
GDCH03
10 04 2022
30000000
55
5
CHC05
GDCH04
25 08 2023
32000000
68
12
CHD12
GDCH05
14 02 2025
42000000
80
20
CHE20
GDCH06
09 07 2026
45000000
85
2
CHF02
GDCH07
05 12 2024
38000000
70
8
CHG08
GDCH08
19 03 2022
29000000
50
1
CHH01
GDCH09
22 10 2023
33000000
64
15
CHI15
GDCH10
30 05 2025
41000000
72
18
CHJ18
GDCH11
12 11 2026
46000000
90
4
CHK04
GDCH12
24 12 2024
37000000
66
10
CHL10
GDCH13
15 01 2022
31000000
58
3
CHM03
GDCH14
07 06 2023
34000000
78
14
CHN14
GDCH15
11 04 2025
43000000
88
22
CHO22
GDCH16
02 02 2026
44500000
82
7
CHP07
GDCH17
16 12 2024
39500000
74
17
CHQ17
GDCH18
28 08 2022
28500000
52
2
CHR02
GDCH19
13 05 2023
34500000
69
11
CHS11
GDCH20
20 09 2025
42500000
84
19
CHT19
GDCH21
05 03 2026
47000000
95
1
CHU01
GDCH22
30 12 2024
36500000
63
15
CHV15
GDCH23
17 07 2022
30500000
57
6
CHW06
GDCH24
26 11 2023
33500000
71
13
CHX13
GDCH25
14 01 2025
41500000
76
25
CHY25