25 25
SVCD01
Nguyen Van A
123 Ly Thuong Kiet Quan 10
125
7.5
6.0
SVCD02
Tran Thi B
456 CMT8 Quan 3
115
4.8
4.5
SVCD03
Le Van C
789 Dien Bien Phu Binh Thanh
130
8.2
7.5
SVCD04
Pham Minh D
12 Hoang Dieu Thu Duc
120
5.0
5.0
SVCD05
Hoang Ngoan E
99 Nguyen Hue Quan 1
118
6.5
3.5
SVCD06
Vu Hoang F
43 Phan Dang Luu Phu Nhuan
140
9.0
8.5
SVCD07
Doan Van G
152 Cao Thang Quan 3
110
5.5
6.0
SVCD08
Tang Thanh H
88 Dong Khoi Quan 1
122
4.2
5.5
SVCD09
Quach Gia I
305 Nguyen Tri Phuong Quan 10
135
7.8
8.0
SVCD10
Bui Minh J
64 Le Hong Phong Quan 5
121
6.0
4.9
SVCD11
Dinh Lan K
91 Hai Ba Trung Quan 3
120
5.2
5.1
SVCD12
Lam Thanh L
14 Thao Dien Quan 2
119
7.0
7.0
SVCD13
Ngo Quang M
99 Cong Hoa Tan Binh
128
8.5
9.0
SVCD14
Ly Nhut N
71 Ba Thang Hai Quan 10
124
5.9
5.5
SVCD15
Phan Huynh O
8A Nguyen Binh Khiem Quan 1
115
3.5
4.0
SVCD16
Duong Tri P
40 Dinh Tien Hoang Binh Thanh
123
6.7
6.2
SVCD17
Trinh My Q
601 CMT8 Tan Binh
132
7.1
7.5
SVCD18
Mai Thao R
33 Nam Ky Khoi Nghia Quan 1
120
4.9
6.8
SVCD19
Cao Xuan S
194 Vo Van Tan Quan 3
127
8.0
5.0
SVCD20
Tieu Chien T
72 Le Thanh Ton Quan 1
110
7.2
8.0
SVCD21
Hua Ngoc U
15 Nguyen Huu Canh Binh Thanh
121
5.5
5.3
SVCD22
Diep Dai V
246 Hoang Van Thu Phu Nhuan
130
6.4
4.0
SVCD23
Kieu Minh W
87 Nguyen Van Troi Phu Nhuan
125
8.9
9.2
SVCD24
Ta Quang X
54 Nguyen Trai Quan 5
116
5.1
5.0
SVCD25
Nghiem Ba Y
102 Tran Hung Dao Quan 5
133
7.4
7.0
SVDH01
Nguyen Van An
123 Ly Thuong Kiet Quan 10
175
7.5
Luan van nghien cuu AI
8.0
SVDH02
Tran Thi Binh
456 CMT8 Quan 3
165
6.8
Luan van Xay dung Website
7.5
SVDH03
Le Van Cuong
789 Dien Bien Phu Binh Thanh
180
8.5
Luan van phan tich du lieu Big Data
9.0
SVDH04
Pham Minh Danh
12 Hoang Dieu Thu Duc
170
5.2
Luan van phat trien Game
5.0
SVDH05
Hoang Ngoan Em
99 Nguyen Hue Quan 1
172
4.5
Luan van Ung dung Blockchain
6.0
SVDH06
Vu Hoang Tuan
43 Phan Dang Luu Phu Nhuan
190
9.5
Luan van Thiet ke chip ban dan
9.8
SVDH07
Doan Van Giang
152 Cao Thang Quan 3
168
5.8
Luan van He thong Thong tin
5.5
SVDH08
Tang Thanh Ha
88 Dong Khoi Quan 1
173
7.0
Luan van xu ly ngon ngu tu nhien
4.5
SVDH09
Quach Gia Phuc
305 Nguyen Tri Phuong Quan 10
185
8.2
Luan van Mang may tinh nang cao
8.5
SVDH10
Bui Minh Quan
64 Le Hong Phong Quan 5
170
6.1
Luan van An ninh mang kieu moi
4.9
SVDH11
Dinh Lan Khue
91 Hai Ba Trung Quan 3
171
5.4
Luan van Thuong mai dien tu
5.2
SVDH12
Lam Thanh Loc
14 Thao Dien Quan 2
169
7.2
Luan van Quan ly khach san
7.0
SVDH13
Ngo Quang Minh
99 Cong Hoa Tan Binh
182
8.8
Luan van Toi uu hoa thuat toan
9.2
SVDH14
Ly Nhut Nam
71 Ba Thang Hai Quan 10
174
5.9
Luan van App di dong Flutter
5.6
SVDH15
Phan Huynh Phuc
8A Nguyen Binh Khiem Quan 1
160
4.0
Luan van Chuyen doi so doanh nghiep
4.0
SVDH16
Duong Tri Phat
40 Dinh Tien Hoang Binh Thanh
176
6.9
Luan van Cloud Computing AWS
7.1
SVDH17
Trinh My Quyen
601 CMT8 Tan Binh
188
7.4
Luan van IoT cho nong nghiep
8.0
SVDH18
Mai Thao Vy
33 Nam Ky Khoi Nghia Quan 1
170
4.8
Luan van microservices architecture
6.5
SVDH19
Cao Xuan Son
194 Vo Van Tan Quan 3
179
8.1
Luan van deep learning trong y te
5.0
SVDH20
Tieu Chien Thang
72 Le Thanh Ton Quan 1
165
7.3
Luan van quan ly chuoi cung ung
8.2
SVDH21
Hua Ngoc Uyen
15 Nguyen Huu Canh Binh Thanh
172
5.6
Luan van phan mem giat la online
5.5
SVDH22
Diep Dai Vinh
246 Hoang Van Thu Phu Nhuan
181
6.3
Luan van e learning platform
4.5
SVDH23
Kieu Minh Vu
87 Nguyen Van Troi Phu Nhuan
186
9.2
Luan van computer vision nang cao
9.5
SVDH24
Ta Quang Xuan
54 Nguyen Trai Quan 5
167
5.3
Luan van web tu dien truc tuyen
5.1
SVDH25
Nghiem Ba Yen
102 Tran Hung Dao Quan 5
184
7.6
Luan van he thong ERP doanh nghiep
7.5
